; pendulumXcrossover-left-arm-stretch
(set-info :status unknown)
(set-logic QF_AUFLIRA)
(declare-fun |HandRight Norm| () Real)
(declare-fun |HandRight Z| () Real)
(declare-fun |SpineMid Norm| () Real)
(declare-fun |SpineMid Z| () Real)
(declare-fun |SpineShoulder Norm| () Real)
(declare-fun |SpineShoulder Z| () Real)
(declare-fun |ShoulderRight Norm| () Real)
(declare-fun |ShoulderRight Z| () Real)
(declare-fun |ElbowRight Norm| () Real)
(declare-fun |WristRight Norm| () Real)
(declare-fun |ElbowLeft Norm| () Real)
(declare-fun |ShoulderLeft Norm| () Real)
(declare-fun |ShoulderLeft Z| () Real)
(declare-fun |HandRight Y| () Real)
(declare-fun |SpineMid Y| () Real)
(declare-fun |SpineShoulder Y| () Real)
(declare-fun |ShoulderRight Y| () Real)
(declare-fun |ShoulderLeft Y| () Real)
(declare-fun |HandRight X| () Real)
(declare-fun |SpineMid X| () Real)
(declare-fun |SpineShoulder X| () Real)
(declare-fun |ShoulderRight X| () Real)
(declare-fun |ShoulderLeft X| () Real)
(declare-fun |ThumbRight Z| () Real)
(declare-fun |ThumbRight Y| () Real)
(declare-fun |ThumbRight X| () Real)
(assert
(let ((?x3920 (* |HandRight Z| |HandRight Norm|)))
(let ((?x159 (* |SpineMid Z| |SpineMid Norm|)))
(let ((?x435 (* |SpineShoulder Z| |SpineShoulder Norm|)))
(let ((?x4101 (* |ShoulderRight Z| |ShoulderRight Norm|)))
(let ((?x5041 (* 0.0 |ElbowRight Norm|)))
(let ((?x340 (+ (+ (+ (+ (+ 0.0 ?x3920) (* 0.0 |WristRight Norm|)) ?x5041) ?x4101) ?x435)))
(let ((?x2109 (* 0.0 0.0)))
(let ((?x1304 (* 1.0 (~ 1.0))))
(let ((?x3066 (+ ?x1304 ?x2109)))
(let ((?x6150 (* ?x3066 |ElbowLeft Norm|)))
(let ((?x4693 (+ (+ (+ (+ 0.0 ?x6150) (* |ShoulderLeft Z| |ShoulderLeft Norm|)) ?x435) ?x159)))
(let ((?x9539 (- (+ ?x4693 ?x6150) (+ (+ ?x340 ?x159) ?x3920))))
(let ((?x6165 (ite (>= ?x9539 0.0) ?x9539 (- 0.0 ?x9539))))
(let ((?x4421 (* |HandRight Y| |HandRight Norm|)))
(let ((?x443 (* |SpineMid Y| |SpineMid Norm|)))
(let ((?x427 (* |SpineShoulder Y| |SpineShoulder Norm|)))
(let ((?x5302 (* |ShoulderRight Y| |ShoulderRight Norm|)))
(let ((?x6247 (* (~ 1.0) |ElbowRight Norm|)))
(let ((?x9376 (+ (+ (+ (+ (+ 0.0 ?x4421) (* (~ 1.0) |WristRight Norm|)) ?x6247) ?x5302) ?x427)))
(let ((?x2389 (* (~ 1.0) 0.0)))
(let ((?x3991 (* 0.0 (~ 1.0))))
(let ((?x11678 (+ ?x3991 ?x2389)))
(let ((?x1895 (* ?x11678 |ElbowLeft Norm|)))
(let ((?x8402 (+ (+ (+ (+ 0.0 ?x1895) (* |ShoulderLeft Y| |ShoulderLeft Norm|)) ?x427) ?x443)))
(let ((?x9662 (- (+ ?x8402 ?x1895) (+ (+ ?x9376 ?x443) ?x4421))))
(let ((?x9679 (ite (>= ?x9662 0.0) ?x9662 (- 0.0 ?x9662))))
(let ((?x5582 (* |HandRight X| |HandRight Norm|)))
(let ((?x441 (* |SpineMid X| |SpineMid Norm|)))
(let ((?x426 (* |SpineShoulder X| |SpineShoulder Norm|)))
(let ((?x5113 (* |ShoulderRight X| |ShoulderRight Norm|)))
(let ((?x9919 (+ (+ (+ (+ (+ 0.0 ?x5582) (* 0.0 |WristRight Norm|)) ?x5041) ?x5113) ?x426)))
(let ((?x7599 (* 0.0 |ElbowLeft Norm|)))
(let ((?x8241 (+ (+ (+ (+ 0.0 ?x7599) (* |ShoulderLeft X| |ShoulderLeft Norm|)) ?x426) ?x441)))
(let ((?x9736 (- (+ ?x8241 ?x7599) (+ (+ ?x9919 ?x441) ?x5582))))
(let ((?x9867 (ite (>= ?x9736 0.0) ?x9736 (- 0.0 ?x9736))))
(let ((?x13945 (ite (>= ?x9867 ?x9679) ?x9867 ?x9679)))
(let (($x6883 (and true true)))
(let (($x11197 (and (and (and (and (and (and $x6883 true) true) true) true) true) true)))
(let ((?x9194 (- |ThumbRight Z| |ThumbRight Z|)))
(let ((?x8796 (ite (>= ?x9194 0.0) ?x9194 (- 0.0 ?x9194))))
(let ((?x7398 (- |ThumbRight Y| |ThumbRight Y|)))
(let ((?x10061 (ite (>= ?x7398 0.0) ?x7398 (- 0.0 ?x7398))))
(let ((?x9143 (- |ThumbRight X| |ThumbRight X|)))
(let ((?x11066 (ite (>= ?x9143 0.0) ?x9143 (- 0.0 ?x9143))))
(let ((?x2010 (ite (>= ?x11066 ?x10061) ?x11066 ?x10061)))
(and (and (< (ite (>= ?x2010 ?x8796) ?x2010 ?x8796) 15.0)) (and (and (and $x11197 true) true) true) (and $x6883 (and true (< (ite (>= ?x13945 ?x6165) ?x13945 ?x6165) (/ 1.0 5.0)))))))))))))))))))))))))))))))))))))))))))))))))))
(check-sat)
